140340
126 5 90 53 70 56 85 76 84 57 44 118 55 54 52 60 100 74 3 1 2 99 4 123 117 116 113 45 40 39 59 111 110 32 36 33 22 49 51 43 46 42 41 82 48 62 47 61 12 69 7 66 11 58 75 50 13 6 9 18 87 19 28 26 27 20 29 24 25 37 30 68 35 34 31 38 21 23 95 67 93 63 97 96 17 72 15 10 14 16 8 124 77 101 98 91 125 78 79 83 92 89 88 107 108 64 109 106 73 112 114 115 121 120 122 119 105 104 103 102 71 0 94 81 80 86 65 
